
Gurobi 11.0.2 (win64) logging started Mon Aug 19 17:52:31 2024

Set parameter LogFile to value "D:\Documenti\Scuola\Laurea magistrale unibs\laurea-unibs-mkfsp\output\2024-08-19T13_57_45.433552\logs\instance12_bucket5.log"
Set parameter TimeLimit to value 400
Set parameter MIPGap to value 0
Gurobi Optimizer version 11.0.2 build v11.0.2rc0 (win64 - Windows 10.0 (19045.2))

CPU model: Intel(R) Core(TM) i5-4670 CPU @ 3.40GHz, instruction set [SSE2|AVX|AVX2]
Thread count: 4 physical cores, 4 logical processors, using up to 4 threads

Optimize a model with 9640 rows, 50850 columns and 1430918 nonzeros
Model fingerprint: 0xa068dcf2
Variable types: 0 continuous, 50850 integer (50460 binary)
Coefficient statistics:
  Matrix range     [1e+00, 8e+03]
  Objective range  [6e+02, 8e+03]
  Bounds range     [1e+00, 1e+00]
  RHS range        [1e+00, 2e+06]
Found heuristic solution: objective 1935047.0000
Presolve time: 3.47s
Presolved: 9640 rows, 50850 columns, 1430918 nonzeros
Variable types: 0 continuous, 50850 integer (50460 binary)
Found heuristic solution: objective 2067199.0000
Deterministic concurrent LP optimizer: primal simplex, dual simplex, and barrier
Showing barrier log only...

Root barrier log...

Ordering time: 0.12s

Barrier statistics:
 AA' NZ     : 1.526e+06
 Factor NZ  : 1.744e+06 (roughly 34 MB of memory)
 Factor Ops : 8.688e+08 (less than 1 second per iteration)
 Threads    : 2

Barrier performed 0 iterations in 4.71 seconds (3.78 work units)
Barrier solve interrupted - model solved by another algorithm

Concurrent spin time: 0.26s (can be avoided by choosing Method=3)

Solved with dual simplex

Root relaxation: objective 2.278890e+06, 2966 iterations, 1.12 seconds (0.77 work units)

    Nodes    |    Current Node    |     Objective Bounds      |     Work
 Expl Unexpl |  Obj  Depth IntInf | Incumbent    BestBd   Gap | It/Node Time

H    0     0                    2278890.0000 2278890.00  0.00%     -    4s
     0     0 2278890.00    0 2299 2278890.00 2278890.00  0.00%     -    4s

Explored 1 nodes (2966 simplex iterations) in 4.86 seconds (3.85 work units)
Thread count was 4 (of 4 available processors)

Solution count 3: 2.27889e+06 2.0672e+06 1.93505e+06 

Optimal solution found (tolerance 0.00e+00)
Best objective 2.278890000000e+06, best bound 2.278890000000e+06, gap 0.0000%
